p cnf 368 266
c p distribution  0.875 0.125
c p distribution  0.875 0.125
c p distribution  0.875 0.125
c p distribution  0.875 0.125
c p distribution  0.875 0.125
c p distribution  0.875 0.125
c p distribution  0.875 0.125
c p distribution  0.875 0.125
c p distribution  0.875 0.125
c p distribution  0.875 0.125
c p distribution  0.875 0.125
c p distribution  0.875 0.125
c p distribution  0.875 0.125
c p distribution  0.875 0.125
c p distribution  0.875 0.125
c p distribution  0.875 0.125
c p distribution  0.875 0.125
c p distribution  0.875 0.125
c p distribution  0.875 0.125
c p distribution  0.875 0.125
c p distribution  0.875 0.125
c p distribution  0.875 0.125
c p distribution  0.875 0.125
c p distribution  0.875 0.125
c p distribution  0.875 0.125
c p distribution  0.875 0.125
c p distribution  0.875 0.125
c p distribution  0.875 0.125
c p distribution  0.875 0.125
c p distribution  0.875 0.125
c p distribution  0.875 0.125
c p distribution  0.875 0.125
c p distribution  0.875 0.125
c p distribution  0.875 0.125
c p distribution  0.875 0.125
c p distribution  0.875 0.125
c p distribution  0.875 0.125
c p distribution  0.875 0.125
c p distribution  0.875 0.125
c p distribution  0.875 0.125
c p distribution  0.875 0.125
c p distribution  0.875 0.125
c p distribution  0.875 0.125
c p distribution  0.875 0.125
c p distribution  0.875 0.125
c p distribution  0.875 0.125
c p distribution  0.875 0.125
c p distribution  0.875 0.125
c p distribution  0.875 0.125
c p distribution  0.875 0.125
c p distribution  0.875 0.125
c p distribution  0.875 0.125
c p distribution  0.875 0.125
c p distribution  0.875 0.125
c p distribution  0.875 0.125
c p distribution  0.875 0.125
c p distribution  0.875 0.125
c p distribution  0.875 0.125
c p distribution  0.875 0.125
c p distribution  0.875 0.125
c p distribution  0.875 0.125
c p distribution  0.875 0.125
c p distribution  0.875 0.125
c p distribution  0.875 0.125
c p distribution  0.875 0.125
c p distribution  0.875 0.125
c p distribution  0.875 0.125
c p distribution  0.875 0.125
c p distribution  0.875 0.125
c p distribution  0.875 0.125
c p distribution  0.875 0.125
c p distribution  0.875 0.125
c p distribution  0.875 0.125
c p distribution  0.875 0.125
c p distribution  0.875 0.125
c p distribution  0.875 0.125
c p distribution  0.875 0.125
c p distribution  0.875 0.125
c p distribution  0.875 0.125
c p distribution  0.875 0.125
c p distribution  0.875 0.125
c p distribution  0.875 0.125
c p distribution  0.875 0.125
c p distribution  0.875 0.125
c p distribution  0.875 0.125
c p distribution  0.875 0.125
c p distribution  0.875 0.125
c p distribution  0.875 0.125
c p distribution  0.875 0.125
c p distribution  0.875 0.125
c p distribution  0.875 0.125
c p distribution  0.875 0.125
c p distribution  0.875 0.125
c p distribution  0.875 0.125
c p distribution  0.875 0.125
c p distribution  0.875 0.125
c p distribution  0.875 0.125
c p distribution  0.875 0.125
c p distribution  0.875 0.125
c p distribution  0.875 0.125
c p distribution  0.875 0.125
c p distribution  0.875 0.125
c p distribution  0.875 0.125
c p distribution  0.875 0.125
c p distribution  0.875 0.125
c p distribution  0.875 0.125
c p distribution  0.875 0.125
c p distribution  0.875 0.125
c p distribution  0.875 0.125
c p distribution  0.875 0.125
c p distribution  0.875 0.125
c p distribution  0.875 0.125
c p distribution  0.875 0.125
c p distribution  0.875 0.125
c p distribution  0.875 0.125
c p distribution  0.875 0.125
c p distribution  0.875 0.125
c p distribution  0.875 0.125
c p distribution  0.875 0.125
c p distribution  0.875 0.125
c p distribution  0.875 0.125
c p distribution  0.875 0.125
c p distribution  0.875 0.125
c p distribution  0.875 0.125
c p distribution  0.875 0.125
c p distribution  0.875 0.125
c p distribution  0.875 0.125
c p distribution  0.875 0.125
c p distribution  0.875 0.125
c p distribution  0.875 0.125
c p distribution  0.875 0.125
c p distribution  0.875 0.125
316 0
-277 0
304 -268 -1 0
268 -304 -1 0
288 -291 -3 0
291 -288 -3 0
277 -265 -5 0
265 -277 -5 0
295 -266 -7 0
266 -295 -7 0
310 -322 -9 0
322 -310 -9 0
354 -289 -11 0
289 -354 -11 0
280 -334 -13 0
334 -280 -13 0
367 -346 -15 0
346 -367 -15 0
359 -337 -17 0
337 -359 -17 0
289 -328 -19 0
328 -289 -19 0
285 -283 -21 0
283 -285 -21 0
323 -348 -23 0
348 -323 -23 0
266 -365 -25 0
365 -266 -25 0
272 -336 -27 0
336 -272 -27 0
295 -343 -29 0
343 -295 -29 0
275 -330 -31 0
330 -275 -31 0
350 -333 -33 0
333 -350 -33 0
359 -293 -35 0
293 -359 -35 0
311 -347 -37 0
347 -311 -37 0
296 -340 -39 0
340 -296 -39 0
305 -367 -41 0
367 -305 -41 0
317 -314 -43 0
314 -317 -43 0
274 -276 -45 0
276 -274 -45 0
341 -342 -47 0
342 -341 -47 0
287 -307 -49 0
307 -287 -49 0
286 -288 -51 0
288 -286 -51 0
360 -340 -53 0
340 -360 -53 0
278 -338 -55 0
338 -278 -55 0
295 -299 -57 0
299 -295 -57 0
296 -290 -59 0
290 -296 -59 0
351 -268 -61 0
268 -351 -61 0
277 -332 -63 0
332 -277 -63 0
279 -335 -65 0
335 -279 -65 0
316 -339 -67 0
339 -316 -67 0
347 -267 -69 0
267 -347 -69 0
313 -361 -71 0
361 -313 -71 0
293 -274 -73 0
274 -293 -73 0
271 -331 -75 0
331 -271 -75 0
308 -269 -77 0
269 -308 -77 0
344 -337 -79 0
337 -344 -79 0
271 -306 -81 0
306 -271 -81 0
273 -361 -83 0
361 -273 -83 0
272 -270 -85 0
270 -272 -85 0
310 -265 -87 0
265 -310 -87 0
346 -367 -89 0
367 -346 -89 0
298 -281 -91 0
281 -298 -91 0
331 -268 -93 0
268 -331 -93 0
329 -342 -95 0
342 -329 -95 0
357 -330 -97 0
330 -357 -97 0
308 -350 -99 0
350 -308 -99 0
283 -325 -101 0
325 -283 -101 0
298 -355 -103 0
355 -298 -103 0
284 -352 -105 0
352 -284 -105 0
302 -335 -107 0
335 -302 -107 0
343 -333 -109 0
333 -343 -109 0
320 -314 -111 0
314 -320 -111 0
269 -333 -113 0
333 -269 -113 0
284 -339 -115 0
339 -284 -115 0
333 -292 -117 0
292 -333 -117 0
300 -270 -119 0
270 -300 -119 0
287 -306 -121 0
306 -287 -121 0
348 -362 -123 0
362 -348 -123 0
282 -338 -125 0
338 -282 -125 0
356 -361 -127 0
361 -356 -127 0
317 -345 -129 0
345 -317 -129 0
323 -337 -131 0
337 -323 -131 0
333 -343 -133 0
343 -333 -133 0
292 -287 -135 0
287 -292 -135 0
348 -334 -137 0
334 -348 -137 0
283 -307 -139 0
307 -283 -139 0
309 -354 -141 0
354 -309 -141 0
364 -315 -143 0
315 -364 -143 0
300 -354 -145 0
354 -300 -145 0
294 -364 -147 0
364 -294 -147 0
283 -307 -149 0
307 -283 -149 0
327 -267 -151 0
267 -327 -151 0
288 -312 -153 0
312 -288 -153 0
277 -275 -155 0
275 -277 -155 0
318 -300 -157 0
300 -318 -157 0
285 -280 -159 0
280 -285 -159 0
269 -353 -161 0
353 -269 -161 0
318 -367 -163 0
367 -318 -163 0
278 -297 -165 0
297 -278 -165 0
286 -308 -167 0
308 -286 -167 0
294 -364 -169 0
364 -294 -169 0
311 -327 -171 0
327 -311 -171 0
302 -290 -173 0
290 -302 -173 0
305 -334 -175 0
334 -305 -175 0
303 -349 -177 0
349 -303 -177 0
340 -308 -179 0
308 -340 -179 0
319 -273 -181 0
273 -319 -181 0
303 -326 -183 0
326 -303 -183 0
319 -337 -185 0
337 -319 -185 0
279 -335 -187 0
335 -279 -187 0
276 -327 -189 0
327 -276 -189 0
281 -328 -191 0
328 -281 -191 0
309 -328 -193 0
328 -309 -193 0
321 -349 -195 0
349 -321 -195 0
301 -281 -197 0
281 -301 -197 0
313 -356 -199 0
356 -313 -199 0
313 -356 -201 0
356 -313 -201 0
280 -362 -203 0
362 -280 -203 0
347 -266 -205 0
266 -347 -205 0
333 -353 -207 0
353 -333 -207 0
329 -356 -209 0
356 -329 -209 0
303 -302 -211 0
302 -303 -211 0
329 -342 -213 0
342 -329 -213 0
363 -346 -215 0
346 -363 -215 0
351 -353 -217 0
353 -351 -217 0
312 -326 -219 0
326 -312 -219 0
298 -300 -221 0
300 -298 -221 0
294 -363 -223 0
363 -294 -223 0
332 -265 -225 0
265 -332 -225 0
323 -337 -227 0
337 -323 -227 0
285 -305 -229 0
305 -285 -229 0
289 -301 -231 0
301 -289 -231 0
298 -324 -233 0
324 -298 -233 0
316 -322 -235 0
322 -316 -235 0
315 -275 -237 0
275 -315 -237 0
339 -358 -239 0
358 -339 -239 0
368 -342 -241 0
342 -368 -241 0
336 -309 -243 0
309 -336 -243 0
277 -330 -245 0
330 -277 -245 0
320 -301 -247 0
301 -320 -247 0
358 -332 -249 0
332 -358 -249 0
279 -302 -251 0
302 -279 -251 0
366 -350 -253 0
350 -366 -253 0
345 -324 -255 0
324 -345 -255 0
360 -296 -257 0
296 -360 -257 0
316 -362 -259 0
362 -316 -259 0
311 -267 -261 0
267 -311 -261 0
303 -302 -263 0
302 -303 -263 0

